data/CVRPLIB/Vrp-Set-XML100/instances/XML100_1114_03.vrp
NAME : XML100_1114_03
COMMENT : Generated by Queiroga, Sadykov, Uchoa, and Vidal (2021)
TYPE : CVRP
DIMENSION : 101
EDGE_WEIGHT_TYPE : EUC_2D
CAPACITY : 15
NODE_COORD_SECTION
1    37   4   
2    325  969 
3    687  536 
4    599  726 
5    616  190 
6    757  389 
7    177  827 
8    481  383 
9    726  603 
10   5    921 
11   135  549 
12   476  717 
13   118  892 
14   307  340 
15   358  19  
16   936  156 
17   964  917 
18   696  963 
19   507  87  
20   11   202 
21   776  555 
22   762  990 
23   569  142 
24   112  121 
25   16   814 
26   6    817 
27   43   811 
28   454  955 
29   86   700 
30   871  109 
31   867  820 
32   751  328 
33   958  884 
34   756  261 
35   76   908 
36   934  96  
37   125  939 
38   731  743 
39   825  124 
40   676  928 
41   550  457 
42   12   852 
43   931  35  
44   684  562 
45   712  629 
46   263  260 
47   922  849 
48   86   734 
49   731  544 
50   422  292 
51   149  500 
52   196  499 
53   792  529 
54   565  290 
55   467  891 
56   635  166 
57   364  668 
58   698  946 
59   595  927 
60   693  308 
61   350  271 
62   645  967 
63   315  907 
64   239  945 
65   609  545 
66   489  172 
67   485  515 
68   342  994 
69   465  29  
70   596  617 
71   354  665 
72   937  550 
73   837  439 
74   499  403 
75   527  889 
76   264  318 
77   390  620 
78   915  904 
79   368  608 
80   728  481 
81   455  331 
82   619  44  
83   70   974 
84   551  740 
85   636  144 
86   994  318 
87   34   427 
88   31   945 
89   830  10  
90   913  429 
91   943  758 
92   280  902 
93   376  590 
94   608  892 
95   313  933 
96   343  40  
97   772  110 
98   352  369 
99   244  263 
100  134  290 
101  368  308 
DEMAND_SECTION
1    0   
2    1   
3    1   
4    1   
5    1   
6    1   
7    1   
8    1   
9    1   
10   1   
11   1   
12   1   
13   1   
14   1   
15   1   
16   1   
17   1   
18   1   
19   1   
20   1   
21   1   
22   1   
23   1   
24   1   
25   1   
26   1   
27   1   
28   1   
29   1   
30   1   
31   1   
32   1   
33   1   
34   1   
35   1   
36   1   
37   1   
38   1   
39   1   
40   1   
41   1   
42   1   
43   1   
44   1   
45   1   
46   1   
47   1   
48   1   
49   1   
50   1   
51   1   
52   1   
53   1   
54   1   
55   1   
56   1   
57   1   
58   1   
59   1   
60   1   
61   1   
62   1   
63   1   
64   1   
65   1   
66   1   
67   1   
68   1   
69   1   
70   1   
71   1   
72   1   
73   1   
74   1   
75   1   
76   1   
77   1   
78   1   
79   1   
80   1   
81   1   
82   1   
83   1   
84   1   
85   1   
86   1   
87   1   
88   1   
89   1   
90   1   
91   1   
92   1   
93   1   
94   1   
95   1   
96   1   
97   1   
98   1   
99   1   
100  1   
101  1   
DEPOT_SECTION
1
-1
EOF
