data/CVRPLIB/Vrp-Set-XML100/solutions/XML100_1114_03.sol
Route #1: 95 18 22 55 84 96 38 29 15 35 42 88 81 68 14
Route #2: 50 10 28 47 26 34 12 36 82 87 9 41 25 24 86
Route #3: 92 78 76 70 56 54 27 67 1 94 62 91 63 6 51
Route #4: 19 99 75 13 97 100 60 45 98 23
Route #5: 65 53 59 31 5 72 52 20 48 2 43 64 40 73 7
Route #6: 79 8 44 37 30 77 16 32 46 90 71 89 85 33 4
Route #7: 11 74 58 61 17 21 57 39 93 83 3 69 66 80 49
Cost 15432
